%%%mzn-stat: initTime=0.003357685
%%%mzn-stat: objective=356
%%%mzn-stat: nodes=485
%%%mzn-stat: restarts=0
%%%mzn-stat: peakDepth=101
%%%mzn-stat: solveTime=0.038345245
%%%mzn-stat: variables=372
%%%mzn-stat: propagators=251
%%%mzn-stat: failures=376
%%%mzn-stat: propagations=73866
%%%mzn-stat: nogoods=376
%%%mzn-stat: AverageConflictSize=2.4388297872340425
%%%mzn-stat: NumUnitNogoodsLearned=355
%%%mzn-stat: AverageLearnedNogoodLength=2.7074468085106385
%%%mzn-stat: AverageBacktrackAmount=0
%%%mzn-stat: AverageLbd=1.2047872340425532
%%%mzn-stat-end
maxleg = 356;
succ = array1d(1..20,[15, 7, 13, 12, 19, 18, 16, 11, 8, 4, 10, 3, 14, 1, 20, 17, 5, 9, 6, 2]);
% time elapsed: 5.33 s
----------
==========
% time elapsed: 5.33 s
%%%mzn-stat: initTime=0.003357685
%%%mzn-stat: objective=356
%%%mzn-stat: nodes=485
%%%mzn-stat: restarts=0
%%%mzn-stat: peakDepth=101
%%%mzn-stat: solveTime=0.038352811
%%%mzn-stat: variables=372
%%%mzn-stat: propagators=251
%%%mzn-stat: failures=376
%%%mzn-stat: propagations=73866
%%%mzn-stat: nogoods=376
%%%mzn-stat: AverageConflictSize=2.4388297872340425
%%%mzn-stat: NumUnitNogoodsLearned=355
%%%mzn-stat: AverageLearnedNogoodLength=2.7074468085106385
%%%mzn-stat: AverageBacktrackAmount=0
%%%mzn-stat: AverageLbd=1.2047872340425532
%%%mzn-stat-end
